Route 1: 28 12 40 53 97 13 89 58
Route 2: 27 69 76 79 50 1 70
Route 3: 59 95 98 99 6 26 24 77
Route 4: 92 52 88 94 96 60 93
Route 5: 83 82 18 84 37 91 100
Route 6: 31 7 8 46 48
Route 7: 2 21 73 22 56 74 80
Route 8: 42 15 87 57 43
Route 9: 5 61 85 17
Route 10: 33 29 81 3 68 25
Route 11: 72 75 41 54
Route 12: 39 23 67 55 4
Route 13: 63 62 11 90 10 32
Route 14: 30 51 9 20
Route 15: 14 16 86
Route 16: 65 71 78 34 35
Route 17: 45 47 19 49
Route 18: 44 38
Route 19: 36 64 66
Vehicles: 19
Distance: 1940.61
